Route #1: 40 64 11 26 44 23 77 1 52 24
Route #2: 17 72 58 38 69 67 43 21
Route #3: 15 12 34 46 71 22 8
Route #4: 56 51 45 31 73 76 32 7
Route #5: 65 30 37 70 29 57 75
Route #6: 27 49 5 63 2
Route #7: 47 3 20 54 62 6 60 66 16
Route #8: 9 19 74 28 4 13 48 39
Route #9: 41 14 36 59 35 55 33 61 50
Route #10: 53 68 18 10 25 42
Cost 1241
Time 0.117617
